(set-logic HORN)
(declare-fun inv ((_ BitVec 32) (_ BitVec 32) ) Bool)
(assert (forall ((x (_ BitVec 32)) (y (_ BitVec 32))) 
       (=> ( = y x ) (inv x y))))
(assert (forall ((x (_ BitVec 32)) (y (_ BitVec 32)) (x! (_ BitVec 32)) (y! (_ BitVec 32))) 
       (=> (and (inv x y) ( and ( bvslt x (_ bv1024 32) ) ( = x! ( bvadd x (_ bv1 32) ) ) ( = y! ( bvadd y (_ bv1 32) ) ) )) (inv x! y!))))
(assert (forall ((x (_ BitVec 32)) (y (_ BitVec 32))) 
       (=> (inv x y) ( or ( bvslt x (_ bv1024 32) ) ( = x y ) ))))
(check-sat)
